
Maximize
2 s0 + 2 s1

ST
2 d0 + 2 d1 + 1 d1p    < 6.2831853071795864769252867666

d1 > 1.153
d1p > 1.153
d0 > 0

0.05537364566846414 s0pt - s0 = 0
0.05537364566846414 s1pt - s1 = 0

s0 -0.37898 d0 < -0.4111
s0 +0.142 d0 < 0.23021
s0 +0.3302 d0 < 0.5353
s0 < 0.0553736456684637

s1-4.56766 d1 < -5.7906
s1-1.5094 d1 < -2.0749
s1-0.5301 d1 < -0.8341
s1-0.3878 d1 < -0.6284
s1 < 0
s1+0.1897 d1 < 0.4124
s1+0.5905 d1 < 1.5707


BOUNDS

s0 free
s1 free
s0pt free
s1pt free

END
